c ren 1 -> 1
c ren 2 -> 2
c ren 4 -> 3
c ren 7 -> 4
c ren 9 -> 5
c ren 10 -> 6
c ren 11 -> 7
c ren 14 -> 8
c ren 17 -> 9
c ren 20 -> 10
c ren 21 -> 11
c ren 23 -> 12
c ren 28 -> 13
c ren 31 -> 14
c ren 33 -> 15
c ren 36 -> 16
c ren 39 -> 17
c ren 46 -> 18
c ren 53 -> 19
c ren 86 -> 20
c ren 92 -> 21
p cnf 21 47
a 1 2 3 5 6 7 8 10 11 12 14 15 18 19 0
d 16 18 19 0
d 20 1 5 0
d 21 10 14 0
e 4 9 13 17 0
-1 2 3 4 0
-4 -9 11 12 -13 -16 -17 -20 0
1 -3 4 0
2 3 -4 -6 7 8 -9 11 12 -13 -16 -17 0
-5 -6 7 8 9 0
5 -7 9 0
-4 -6 7 8 -9 -13 16 -17 18 19 0
5 -8 9 0
1 -2 4 0
-3 -4 7 8 -9 -13 16 -17 18 19 0
-4 -9 -12 -13 -17 -21 0
-3 -4 7 8 -9 -13 -16 -17 -18 0
10 -12 13 0
2 3 -4 7 8 -9 11 12 -13 15 -17 18 19 0
-3 -4 -9 -13 -17 -21 0
-2 -4 -9 -13 -17 -21 0
2 3 -4 7 8 -9 11 12 -13 -15 -16 -17 0
-6 14 17 0
-3 10 13 0
-4 -7 -9 -13 -17 -21 0
-8 14 17 0
-4 -8 -9 -13 -17 -21 0
14 15 17 0
-3 -4 7 8 -9 -13 -16 -17 -19 0
14 16 17 0
-4 -9 -13 15 -17 -21 0
-7 14 17 0
-4 7 8 -9 -11 -13 -16 -17 -18 0
-4 7 8 -9 -11 -13 -16 -17 -19 0
-4 7 8 -9 -11 -13 16 -17 18 19 0
-2 -4 7 8 -9 -13 16 -17 18 19 0
-2 -4 7 8 -9 -13 -16 -17 -18 0
-4 -6 -9 -13 -17 -21 0
-4 -9 -13 -17 -18 -21 0
-4 -9 -13 -17 -19 -21 0
5 6 9 0
-2 -4 7 8 -9 -13 -16 -17 -19 0
2 3 -4 -6 7 8 -9 11 12 -13 -17 18 19 20 0
-4 7 8 -9 -12 -13 16 -17 18 19 0
2 3 -10 11 12 13 0
6 7 8 -14 -15 -16 17 0
-4 -9 -11 -13 -17 -21 0
-4 7 8 -9 -12 -13 -16 -17 -19 0
-2 10 13 0
10 -11 13 0
-4 7 8 -9 -12 -13 -16 -17 -18 0
2 3 -4 6 7 8 -9 11 12 -13 -17 18 19 21 0
